(set-option :produce-models true)
(set-logic QF_UF)
(declare-fun p47() Bool)
(declare-fun p30() Bool)
(declare-fun p84() Bool)
(declare-fun p86() Bool)
(declare-fun p43() Bool)
(declare-fun p78() Bool)
(declare-fun p20() Bool)
(declare-fun p0() Bool)
(declare-fun p70() Bool)
(declare-fun p79() Bool)
(declare-fun p35() Bool)
(declare-fun p89() Bool)
(declare-fun p55() Bool)
(declare-fun p77() Bool)
(declare-fun p52() Bool)
(declare-fun p82() Bool)
(declare-fun p31() Bool)
(declare-fun p8() Bool)
(declare-fun p50() Bool)
(declare-fun p24() Bool)
(declare-fun p61() Bool)
(declare-fun p21() Bool)
(declare-fun p59() Bool)
(declare-fun p58() Bool)
(declare-fun p73() Bool)
(declare-fun p5() Bool)
(declare-fun p10() Bool)
(declare-fun p81() Bool)
(declare-fun p32() Bool)
(declare-fun p17() Bool)
(declare-fun p63() Bool)
(declare-fun p74() Bool)
(declare-fun p41() Bool)
(declare-fun p33() Bool)
(declare-fun p71() Bool)
(declare-fun p87() Bool)
(declare-fun p39() Bool)
(declare-fun p48() Bool)
(declare-fun p57() Bool)
(declare-fun p44() Bool)
(declare-fun p42() Bool)
(declare-fun p80() Bool)
(declare-fun p54() Bool)
(declare-fun p75() Bool)
(declare-fun p6() Bool)
(declare-fun p37() Bool)
(declare-fun p23() Bool)
(declare-fun p27() Bool)
(declare-fun p46() Bool)
(declare-fun p19() Bool)
(declare-fun p22() Bool)
(declare-fun p29() Bool)
(declare-fun p16() Bool)
(declare-fun p76() Bool)
(declare-fun p72() Bool)
(declare-fun p40() Bool)
(declare-fun p66() Bool)
(declare-fun p65() Bool)
(declare-fun p7() Bool)
(declare-fun p12() Bool)
(declare-fun p69() Bool)
(declare-fun p85() Bool)
(declare-fun p26() Bool)
(declare-fun p56() Bool)
(declare-fun p64() Bool)
(declare-fun p53() Bool)
(declare-fun p1() Bool)
(declare-fun p13() Bool)
(declare-fun p62() Bool)
(declare-fun p14() Bool)
(declare-fun p49() Bool)
(declare-fun p25() Bool)
(declare-fun p67() Bool)
(declare-fun p28() Bool)
(declare-fun p2() Bool)
(declare-fun p18() Bool)
(declare-fun p45() Bool)
(declare-fun p68() Bool)
(declare-fun p3() Bool)
(declare-fun p15() Bool)
(declare-fun p11() Bool)
(declare-fun p38() Bool)
(declare-fun p88() Bool)
(declare-fun p51() Bool)
(declare-fun p60() Bool)
(declare-fun p4() Bool)
(declare-fun p36() Bool)
(declare-fun p83() Bool)
(declare-fun p9() Bool)
(declare-fun p34() Bool)
(assert
(and (or (not p47) (not p30) (not p84)) (or (not p86) (not p43) (not p78)) (or (not p47) p20 p0) (or p70 (not p79) (not p35)) (or p89 p20 p55) (or (not p77) (not p52) (not p82)) (or (not p31) (not p8) p50) (or (not p24) p61 p43) (or (not p21) (not p59) p58) (or p73 (not p5) p10) (or (not p81) (not p32) (not p17)) (or (not p63) p0 (not p82)) (or (not p24) p74 (not p89)) (or p77 (not p5) p41) (or (not p33) (not p71) p70) (or (not p87) (not p20) (not p39)) (or p48 p57 (not p44)) (or p42 (not p61) p80) (or p17 (not p54) p39) (or (not p30) p79 (not p75)) (or p6 (not p37) p23) (or p27 (not p46) p19) (or p57 (not p73) p17) (or p22 p22 (not p71)) (or (not p82) p29 p61) (or p16 p76 (not p82)) (or (not p57) (not p72) p41) (or (not p42) p40 p50) (or (not p66) (not p65) (not p27)) (or (not p7) p33 p48) (or p12 (not p69) p76) (or p85 p26 p10) (or (not p76) (not p33) (not p54)) (or p86 p31 p0) (or (not p56) (not p65) (not p64)) (or p53 (not p1) (not p13)) (or (not p24) (not p16) (not p10)) (or (not p62) p47 (not p74)) (or p14 (not p39) (not p80)) (or (not p76) p17 (not p72)) (or (not p49) p61 (not p56)) (or p50 (not p76) p27) (or (not p49) p33 p35) (or (not p71) (not p73) p47) (or p55 (not p12) p20) (or p25 p85 p32) (or (not p8) (not p67) (not p29)) (or (not p31) p28 (not p39)) (or (not p87) p19 (not p82)) (or p14 (not p21) p2) (or (not p23) p18 p12) (or (not p45) (not p20) (not p47)) (or (not p86) p47 p32) (or (not p21) p24 (not p79)) (or p54 (not p22) (not p20)) (or p47 p14 p21) (or (not p62) (not p13) (not p43)) (or p72 p85 p62) (or p75 p77 p81) (or p40 p68 (not p40)) (or p2 (not p3) p81) (or (not p8) (not p15) (not p29)) (or p21 p52 p39) (or p70 p25 (not p11)) (or (not p68) (not p73) (not p26)) (or (not p7) (not p69) (not p87)) (or p59 p64 (not p68)) (or (not p30) (not p84) (not p38)) (or p88 (not p50) p11) (or p78 p40 (not p2)) (or (not p40) p43 (not p55)) (or (not p51) (not p39) p48) (or (not p35) p63 p89) (or p43 (not p77) (not p53)) (or (not p74) p12 p52) (or p60 p75 (not p27)) (or (not p42) (not p5) (not p0)) (or p6 (not p16) (not p10)) (or p35 p17 (not p80)) (or p42 p29 p72) (or p33 (not p86) (not p71)) (or (not p5) (not p61) (not p4)) (or (not p23) (not p33) (not p57)) (or (not p82) p82 p32) (or (not p2) (not p35) (not p49)) (or p48 p86 (not p12)) (or (not p2) (not p62) p23) (or p15 p4 (not p36)) (or (not p22) (not p65) (not p65)) (or p23 p1 p83) (or (not p68) p72 (not p63)) (or p73 (not p74) p55) (or p43 p19 p69) (or (not p16) (not p69) (not p0)) (or (not p62) (not p26) p47) (or (not p53) p66 (not p54)) (or (not p40) (not p66) p26) (or (not p22) p89 p29) (or p86 p51 p75) (or p2 p9 (not p75)) (or p88 (not p88) (not p51)) (or p89 (not p82) p16) (or (not p5) p10 p73) (or p32 (not p1) (not p59)) (or (not p70) (not p70) (not p13)) (or (not p34) (not p59) p4) (or p11 p7 (not p59)) (or (not p52) p1 (not p86)) (or p25 (not p57) p20) (or p15 p74 p44) (or (not p30) (not p28) p46) (or p73 (not p8) (not p52)) (or (not p20) p18 p71) (or p58 p8 (not p28)) (or p47 p25 p42) (or p87 (not p53) p44) (or (not p68) (not p33) p12) (or (not p26) p43 (not p62)) (or p81 p74 (not p0)) (or (not p41) (not p74) p22) (or (not p72) p38 p3) (or (not p50) (not p48) p75) (or (not p38) (not p55) (not p66)) (or p85 (not p65) p82) (or p17 p35 p7) (or p0 (not p61) (not p69)) (or (not p23) p55 (not p78)) (or (not p5) (not p64) p15) (or p44 p30 p15) (or (not p18) p30 p46) (or (not p63) p73 p4) (or (not p89) (not p40) p89) (or (not p88) (not p33) (not p35)) (or (not p59) (not p21) p42) (or p20 p30 p6) (or p89 p68 p34) (or (not p12) p81 p25) (or (not p54) (not p58) p72) (or p62 p52 p12) (or (not p34) (not p15) p51) (or (not p68) (not p0) p10) (or (not p28) (not p37) (not p36)) (or (not p61) (not p74) p63) (or (not p76) (not p78) p81) (or (not p86) p47 p84) (or (not p25) (not p52) p38) (or (not p7) (not p31) p38) (or (not p35) (not p18) (not p36)) (or p9 (not p70) p1) (or (not p67) p8 (not p73)) (or p28 (not p58) p88) (or (not p14) p73 p40) (or (not p66) p89 (not p44)) (or p66 (not p76) p38) (or p10 p51 (not p81)) (or p46 (not p80) p29) (or p26 (not p37) (not p69)) (or p17 (not p44) (not p63)) (or (not p11) p55 p82) (or (not p9) (not p58) (not p10)) (or (not p11) p62 p55) (or p65 (not p33) (not p18)) (or (not p34) (not p46) (not p40)) (or p25 p33 (not p46)) (or p72 p6 (not p21)) (or (not p4) (not p58) p58) (or (not p37) (not p25) (not p83)) (or p83 (not p45) p36) (or p11 (not p23) (not p29)) (or (not p46) p19 (not p28)) (or (not p81) p30 p75) (or (not p21) p10 (not p37)) (or p15 p14 p48) (or p45 (not p44) (not p74)) (or (not p53) p62 (not p14)) (or p16 (not p41) (not p20)) (or p82 (not p22) p26) (or p42 p3 p23) (or p5 (not p80) p84) (or (not p44) p77 p19) (or (not p68) p81 (not p83)) (or p56 (not p66) (not p64)) (or (not p32) (not p64) (not p75)) (or p54 p88 p75) (or p4 p65 p45) (or (not p72) p78 (not p13)) (or p75 p66 (not p8)) (or (not p75) (not p26) (not p8)) (or p73 p71 p28) (or p68 (not p8) p21) (or p69 p55 (not p37)) (or p47 p41 p39) (or (not p3) p57 (not p53)) (or (not p64) (not p66) p50) (or (not p57) p60 p58) (or p26 (not p0) (not p81)) (or (not p24) p51 (not p71)) (or p52 (not p89) p41) (or p54 p52 (not p52)) (or p57 (not p42) p82) (or (not p48) p74 p62) (or (not p1) (not p67) (not p22)) (or (not p40) p18 (not p83)) (or p35 p45 (not p71)) (or (not p6) (not p65) p6) (or p39 p9 (not p69)) (or (not p42) p0 (not p13)) (or (not p48) (not p62) p9) (or p1 (not p7) p8) (or (not p7) (not p3) p61) (or (not p55) p60 p75) (or (not p59) p53 p44) (or p43 p22 (not p63)) (or (not p85) (not p60) p65) (or p0 p23 (not p50)) (or p68 p45 p26) (or (not p18) (not p27) p66) (or (not p68) (not p59) p86) (or p85 p43 p57) (or (not p23) (not p26) p17) (or (not p64) p85 (not p21)) (or p37 (not p43) (not p68)) (or p16 p47 p60) (or p52 p45 p79) (or (not p29) p2 (not p14)) (or (not p31) (not p22) (not p88)) (or (not p66) p1 (not p2)) (or p72 (not p1) (not p49)) (or p25 (not p6) p42) (or p78 p56 p10) (or (not p14) (not p77) p80) (or (not p26) (not p72) p24) (or p30 (not p49) (not p65)) (or p48 p84 p70) (or p60 (not p86) p72) (or (not p52) p3 p2) (or (not p71) p59 (not p82)) (or (not p28) (not p59) p27) (or p50 (not p50) p86) (or (not p8) p39 (not p16)) (or (not p74) (not p11) (not p19)) (or (not p38) (not p66) p63) (or p33 (not p53) p86) (or (not p36) p15 (not p49)) (or p16 (not p35) p79) (or p76 (not p67) p31) (or (not p40) p40 (not p69)) (or p45 p47 p37) (or (not p15) (not p22) p43) (or (not p23) (not p76) (not p29)) (or p3 (not p63) (not p31)) (or (not p17) p32 (not p36)) (or p35 p17 p82) (or (not p15) (not p10) p35) (or p15 p29 (not p46)) (or p17 p47 p55) (or p22 (not p50) (not p46)) (or (not p24) p62 p84) (or p65 p71 (not p40)) (or p64 (not p75) p57) (or p24 p63 p52) (or (not p76) (not p46) p57) (or (not p12) (not p80) (not p16)) (or p10 (not p55) p71) (or p88 (not p41) p27) (or (not p3) (not p45) (not p57)) (or p59 p39 (not p38)) (or p78 (not p63) (not p16)) (or (not p16) p88 p82) (or p25 p70 (not p36)) (or (not p48) p11 (not p13)) (or p47 (not p67) p65) (or (not p41) p56 (not p7)) (or p0 (not p8) (not p4)) (or (not p83) p50 (not p8)) (or (not p13) p70 p47) (or (not p87) (not p80) p51) (or (not p85) (not p38) p34) (or p60 (not p67) (not p77)) (or (not p65) (not p31) p64) (or (not p70) (not p13) p83) (or (not p6) (not p32) (not p63)) (or (not p81) (not p14) p87) (or p0 (not p3) (not p39)) (or p9 p87 (not p77)) (or (not p58) p71 p12) (or (not p31) (not p57) p51) (or (not p42) p27 p36) (or p72 p37 p41) (or (not p80) (not p14) p52) (or p67 (not p52) p59) (or p30 p72 p53) (or p51 (not p50) (not p14)) (or (not p64) (not p81) (not p72)) (or p84 (not p48) p54) (or (not p52) p52 p88) (or (not p86) p27 p15) (or (not p9) p87 (not p72)) (or p78 p15 (not p16)) (or (not p73) p26 (not p17)) (or (not p25) p59 (not p71)) (or p35 p6 p89) (or (not p78) (not p8) p34) (or p86 (not p15) p8) (or p78 (not p0) p54) (or p7 (not p25) (not p3)) (or p26 p68 p14) (or (not p2) p84 p3) (or p85 p53 p18) (or (not p12) p80 (not p85)) (or (not p75) p28 p79) (or (not p1) p77 p39) (or p30 (not p19) p10) (or (not p35) p67 p88) (or (not p67) (not p15) (not p48)) (or p51 (not p44) p28) (or p15 (not p57) (not p45)) (or (not p59) p30 p80) (or (not p21) (not p65) p77) (or p8 p83 p72) (or p62 p77 p57) (or p14 (not p55) (not p84)) (or (not p27) p37 (not p17)) (or (not p64) (not p11) (not p26)) (or (not p24) p59 (not p31)) (or p9 p49 (not p20)) (or p19 p28 (not p5)) (or p57 (not p15) p5) (or p6 p59 p36) (or p76 (not p38) (not p27)) (or p39 (not p61) p3) (or (not p86) p79 (not p68)) (or p20 (not p23) p45) (or (not p54) p56 p71) (or p7 (not p85) p29) (or (not p41) p18 (not p58)) (or p4 (not p24) p39) (or p12 (not p83) (not p11)) (or (not p33) p12 (not p61)) (or (not p87) p18 (not p81)) (or p37 p0 p25) (or p69 p64 (not p77)) (or (not p44) (not p45) p79) (or p86 p88 (not p70)) (or p57 (not p47) (not p12)) (or (not p15) (not p2) (not p26)) (or p26 p6 p22) (or p5 p30 p67) (or p51 p66 (not p23)) (or p35 p78 p67) (or (not p76) p5 p4) (or (not p12) (not p68) p69) (or (not p38) (not p83) p33) (or (not p32) p84 (not p87)) (or p27 p37 p51) (or (not p83) (not p61) (not p21)) (or (not p12) p72 p11) (or (not p67) p56 (not p77)) (or p51 (not p58) (not p50)) (or p25 p3 (not p12)) (or (not p35) p79 (not p47)) (or p68 (not p35) (not p87)) (or (not p49) p56 (not p68)) (or p89 p0 (not p34)) (or p25 (not p30) p23) (or p24 (not p68) (not p14)) (or p55 (not p58) p40) (or p29 (not p28) (not p42)) (or (not p53) p7 (not p54)) (or p64 p74 p16) (or p60 (not p48) p0) (or p29 (not p84) p70) (or p45 (not p13) (not p41)) (or p38 (not p73) (not p86)) (or (not p17) p49 p31) (or p35 p3 (not p11)) (or p75 (not p84) (not p22)) (or (not p60) (not p86) (not p1)) (or p62 (not p35) p14) (or (not p5) (not p20) (not p50)) (or (not p15) p14 (not p64)) (or p88 (not p13) (not p83)) (or p73 (not p27) (not p80)) (or p60 (not p60) (not p23)) (or p48 (not p24) p22) (or p79 p51 (not p25)) (or p30 (not p29) (not p40)) (or (not p9) p52 (not p36)) (or p86 (not p13) (not p71)) (or p21 (not p8) (not p40)) (or p40 p8 (not p59)) (or p82 p25 (not p21)) (or (not p56) (not p44) p39) (or (not p57) p23 (not p66)) (or p88 p2 (not p52)) (or (not p10) (not p68) (not p48)) (or p79 (not p27) (not p14)) (or (not p70) (not p88) p46) (or p76 p70 (not p87)) (or (not p31) p10 (not p2)) (or p54 (not p14) p81) (or p52 (not p64) p67) (or (not p60) p10 (not p44)) (or (not p35) (not p76) p11) (or p16 (not p23) (not p28)) (or p16 p6 p35) (or (not p16) (not p71) (not p3)) (or p42 (not p74) p16) (or p37 p32 p71) (or (not p68) p25 (not p63)) (or (not p24) (not p10) p35) (or p12 (not p4) p65) (or (not p62) (not p10) (not p8)) (or p17 (not p81) p36) (or p31 (not p69) p14) (or p57 (not p10) p45) (or p85 p19 (not p40)) (or p62 p81 (not p53)) (or (not p42) (not p67) (not p46)) (or (not p71) p1 (not p80)) (or (not p74) p72 (not p57)) (or p47 p32 p68) (or (not p63) p79 p56) (or (not p23) p21 (not p4)) (or (not p49) p73 (not p77)) (or (not p3) (not p77) (not p4)) (or (not p68) p64 (not p69)) (or p38 p70 (not p65)) (or p16 (not p58) p68) (or p86 (not p86) (not p73)) (or p19 p29 p57) (or (not p77) (not p70) p0) (or p2 (not p47) p56) (or p52 (not p89) p58) (or p13 p81 (not p62)) (or (not p7) p60 p76) (or p36 p79 p4) (or (not p73) p31 p1) (or (not p64) p3 (not p31)) (or p14 (not p51) (not p64)) (or (not p23) (not p50) (not p29)) (or p18 (not p53) p6) (or p18 (not p63) (not p32)) (or (not p62) (not p5) (not p38)) (or p44 p46 (not p35)) (or (not p1) p89 (not p0)) (or (not p21) p55 p19) (or (not p54) p33 p74))
)
(check-sat)
(get-model)
